res/heu/pdp_100_mem_1.0/1.0_1.0/lc109.txt
Vehicle 0
0 11 64 13 14 67 16 66 15 69 12 68 65 107 

Vehicle 1
0 2 55 3 4 57 6 5 59 56 58 1 54 107 

Vehicle 2
0 36 35 34 88 87 39 92 33 89 86 107 

Vehicle 3
0 23 76 22 75 24 25 77 26 79 78 27 28 81 80 107 

Vehicle 4
0 31 84 30 29 83 82 32 85 37 90 107 

Vehicle 5
0 48 47 46 44 97 99 45 101 100 98 107 

Vehicle 6
0 17 18 71 19 70 21 72 20 73 74 107 

Vehicle 7
0 7 8 9 10 61 62 60 63 107 

Vehicle 8
0 53 51 104 50 103 49 106 52 102 105 107 

Vehicle 9
0 43 96 40 93 38 91 41 94 42 95 107 

Vehicle used: 10
Total Distance Traveled: 827.8166132662564
Total Penalty of Delay: 0.0
Time Elasped: 6514
Vehicle 0 with capacity 200
			Node 0
		Load 0.0
		Time 0.0
		Delay 0.0
			Membership 1
			Time Window [0, 1236]
			Load at node 0
			Service time at node 0
			Location (40, 50)
	Distance between 10.0
			Node 11
		Load 10.0
		Time 10.0
		Delay 0.0
			Membership 1
			Time Window [10, 370]
			Load at node 10
			Service time at node 90
			Location (30, 50)
	Distance between 5.0
			Node 64
		Load 0.0
		Time 105.0
		Delay 0.0
			Membership 1
			Time Window [15, 375]
			Load at node -10
			Service time at node 90
			Location (25, 50)
	Distance between 2.0
			Node 13
		Load 40.0
		Time 197.0
		Delay 0.0
			Membership 1
			Time Window [17, 377]
			Load at node 40
			Service time at node 90
			Location (25, 52)
	Distance between 2.0
			Node 14
		Load 50.0
		Time 289.0
		Delay 0.0
			Membership 1
			Time Window [109, 469]
			Load at node 10
			Service time at node 0
			Location (23, 52)
	Distance between 0.0
			Node 67
		Load 40.0
		Time 289.0
		Delay 0.0
			Membership 1
			Time Window [109, 469]
			Load at node -10
			Service time at node 90
			Location (23, 52)
	Distance between 3.605551275463989
			Node 16
		Load 50.0
		Time 382.605551275464
		Delay 0.0
			Membership 1
			Time Window [202, 562]
			Load at node 10
			Service time at node 90
			Location (20, 50)
	Distance between 5.0
			Node 66
		Load 10.0
		Time 477.605551275464
		Delay 0.0
			Membership 1
			Time Window [297, 657]
			Load at node -40
			Service time at node 90
			Location (20, 55)
	Distance between 3.0
			Node 15
		Load 30.0
		Time 570.605551275464
		Delay 0.0
			Membership 1
			Time Window [390, 750]
			Load at node 20
			Service time at node 90
			Location (23, 55)
	Distance between 2.0
			Node 69
		Load 20.0
		Time 662.605551275464
		Delay 0.0
			Membership 1
			Time Window [482, 842]
			Load at node -10
			Service time at node 90
			Location (25, 55)
	Distance between 3.0
			Node 12
		Load 30.0
		Time 755.605551275464
		Delay 0.0
			Membership 1
			Time Window [575, 935]
			Load at node 10
			Service time at node 90
			Location (28, 55)
	Distance between 3.0
			Node 68
		Load 10.0
		Time 848.605551275464
		Delay 0.0
			Membership 1
			Time Window [668, 1028]
			Load at node -20
			Service time at node 90
			Location (28, 52)
	Distance between 2.0
			Node 65
		Load 0.0
		Time 940.605551275464
		Delay 0.0
			Membership 1
			Time Window [760, 1120]
			Load at node -10
			Service time at node 90
			Location (30, 52)
	Distance between 10.198039027185569
			Node 107
		Load 0.0
		Time 1040.8035903026496
		Delay 0.0
			Membership 1
			Time Window [0, 1236]
			Load at node 0
			Service time at node 0
			Location (40, 50)

Vehicle 1 with capacity 200
			Node 0
		Load 0.0
		Time 0.0
		Delay 0.0
			Membership 1
			Time Window [0, 1236]
			Load at node 0
			Service time at node 0
			Location (40, 50)
	Distance between 15.132745950421556
			Node 2
		Load 10.0
		Time 15.132745950421556
		Delay 0.0
			Membership 1
			Time Window [15, 375]
			Load at node 10
			Service time at node 90
			Location (42, 65)
	Distance between 1.0
			Node 55
		Load 0.0
		Time 106.13274595042155
		Delay 0.0
			Membership 1
			Time Window [16, 376]
			Load at node -10
			Service time at node 90
			Location (42, 66)
	Distance between 2.0
			Node 3
		Load 20.0
		Time 198.13274595042157
		Delay 0.0
			Membership 1
			Time Window [18, 378]
			Load at node 20
			Service time at node 90
			Location (40, 66)
	Distance between 2.8284271247461903
			Node 4
		Load 40.0
		Time 290.9611730751677
		Delay 0.0
			Membership 1
			Time Window [110, 470]
			Load at node 20
			Service time at node 90
			Location (38, 68)
	Distance between 3.605551275463989
			Node 57
		Load 20.0
		Time 384.5667243506317
		Delay 0.0
			Membership 1
			Time Window [204, 564]
			Load at node -20
			Service time at node 90
			Location (35, 66)
	Distance between 3.0
			Node 6
		Load 30.0
		Time 477.5667243506317
		Delay 0.0
			Membership 1
			Time Window [297, 657]
			Load at node 10
			Service time at node 90
			Location (35, 69)
	Distance between 3.1622776601683795
			Node 5
		Load 40.0
		Time 570.7290020108001
		Delay 0.0
			Membership 1
			Time Window [390, 750]
			Load at node 10
			Service time at node 90
			Location (38, 70)
	Distance between 2.23606797749979
			Node 59
		Load 30.0
		Time 662.9650699882999
		Delay 0.0
			Membership 1
			Time Window [482, 842]
			Load at node -10
			Service time at node 90
			Location (40, 69)
	Distance between 2.23606797749979
			Node 56
		Load 10.0
		Time 755.2011379657997
		Delay 0.0
			Membership 1
			Time Window [575, 935]
			Load at node -20
			Service time at node 90
			Location (42, 68)
	Distance between 3.605551275463989
			Node 58
		Load 0.0
		Time 848.8066892412637
		Delay 0.0
			Membership 1
			Time Window [668, 1028]
			Load at node -10
			Service time at node 90
			Location (45, 70)
	Distance between 2.0
			Node 1
		Load 10.0
		Time 940.8066892412637
		Delay 0.0
			Membership 1
			Time Window [760, 1120]
			Load at node 10
			Service time at node 90
			Location (45, 68)
	Distance between 3.0
			Node 54
		Load 0.0
		Time 1033.8066892412637
		Delay 0.0
			Membership 1
			Time Window [770, 1130]
			Load at node -10
			Service time at node 90
			Location (45, 65)
	Distance between 15.811388300841896
			Node 107
		Load 0.0
		Time 1139.6180775421055
		Delay 0.0
			Membership 1
			Time Window [0, 1236]
			Load at node 0
			Service time at node 0
			Location (40, 50)

Vehicle 2 with capacity 200
			Node 0
		Load 0.0
		Time 0.0
		Delay 0.0
			Membership 1
			Time Window [0, 1236]
			Load at node 0
			Service time at node 0
			Location (40, 50)
	Distance between 12.206555615733702
			Node 36
		Load 10.0
		Time 12.206555615733702
		Delay 0.0
			Membership 1
			Time Window [12, 372]
			Load at node 10
			Service time at node 90
			Location (47, 40)
	Distance between 1.0
			Node 35
		Load 20.0
		Time 103.2065556157337
		Delay 0.0
			Membership 1
			Time Window [12, 372]
			Load at node 10
			Service time at node 90
			Location (48, 40)
	Distance between 2.0
			Node 34
		Load 70.0
		Time 195.2065556157337
		Delay 0.0
			Membership 1
			Time Window [15, 375]
			Load at node 50
			Service time at node 90
			Location (50, 40)
	Distance between 5.0
			Node 88
		Load 60.0
		Time 290.2065556157337
		Delay 0.0
			Membership 1
			Time Window [110, 470]
			Load at node -10
			Service time at node 90
			Location (50, 35)
	Distance between 3.0
			Node 87
		Load 10.0
		Time 383.2065556157337
		Delay 0.0
			Membership 1
			Time Window [203, 563]
			Load at node -50
			Service time at node 90
			Location (53, 35)
	Distance between 5.0
			Node 39
		Load 20.0
		Time 478.2065556157337
		Delay 0.0
			Membership 1
			Time Window [298, 658]
			Load at node 10
			Service time at node 0
			Location (53, 30)
	Distance between 0.0
			Node 92
		Load 10.0
		Time 478.2065556157337
		Delay 0.0
			Membership 1
			Time Window [298, 658]
			Load at node -10
			Service time at node 90
			Location (53, 30)
	Distance between 3.0
			Node 33
		Load 20.0
		Time 571.2065556157337
		Delay 0.0
			Membership 1
			Time Window [391, 751]
			Load at node 10
			Service time at node 90
			Location (50, 30)
	Distance between 2.0
			Node 89
		Load 10.0
		Time 663.2065556157337
		Delay 0.0
			Membership 1
			Time Window [483, 843]
			Load at node -10
			Service time at node 90
			Location (48, 30)
	Distance between 5.830951894845301
			Node 86
		Load 0.0
		Time 763.0
		Delay 0.0
			Membership 1
			Time Window [763, 1123]
			Load at node -10
			Service time at node 90
			Location (45, 35)
	Distance between 15.811388300841896
			Node 107
		Load 0.0
		Time 868.8113883008419
		Delay 0.0
			Membership 1
			Time Window [0, 1236]
			Load at node 0
			Service time at node 0
			Location (40, 50)

Vehicle 3 with capacity 200
			Node 0
		Load 0.0
		Time 0.0
		Delay 0.0
			Membership 1
			Time Window [0, 1236]
			Load at node 0
			Service time at node 0
			Location (40, 50)
	Distance between 16.55294535724685
			Node 23
		Load 10.0
		Time 16.55294535724685
		Delay 0.0
			Membership 1
			Time Window [16, 376]
			Load at node 10
			Service time at node 90
			Location (33, 35)
	Distance between 3.0
			Node 76
		Load 0.0
		Time 109.55294535724684
		Delay 0.0
			Membership 1
			Time Window [19, 379]
			Load at node -10
			Service time at node 90
			Location (33, 32)
	Distance between 2.0
			Node 22
		Load 10.0
		Time 201.55294535724684
		Delay 0.0
			Membership 1
			Time Window [21, 381]
			Load at node 10
			Service time at node 90
			Location (35, 32)
	Distance between 2.0
			Node 75
		Load 0.0
		Time 293.5529453572468
		Delay 0.0
			Membership 1
			Time Window [113, 473]
			Load at node -10
			Service time at node 90
			Location (35, 30)
	Distance between 3.0
			Node 24
		Load 10.0
		Time 386.5529453572468
		Delay 0.0
			Membership 1
			Time Window [206, 566]
			Load at node 10
			Service time at node 90
			Location (32, 30)
	Distance between 2.8284271247461903
			Node 25
		Load 40.0
		Time 479.381372481993
		Delay 0.0
			Membership 1
			Time Window [299, 659]
			Load at node 30
			Service time at node 90
			Location (30, 32)
	Distance between 2.0
			Node 77
		Load 30.0
		Time 571.381372481993
		Delay 0.0
			Membership 1
			Time Window [391, 751]
			Load at node -10
			Service time at node 90
			Location (30, 30)
	Distance between 2.0
			Node 26
		Load 40.0
		Time 663.381372481993
		Delay 0.0
			Membership 1
			Time Window [483, 843]
			Load at node 10
			Service time at node 0
			Location (28, 30)
	Distance between 0.0
			Node 79
		Load 30.0
		Time 663.381372481993
		Delay 0.0
			Membership 1
			Time Window [483, 843]
			Load at node -10
			Service time at node 90
			Location (28, 30)
	Distance between 3.0
			Node 78
		Load 0.0
		Time 756.381372481993
		Delay 0.0
			Membership 1
			Time Window [576, 936]
			Load at node -30
			Service time at node 90
			Location (25, 30)
	Distance between 2.23606797749979
			Node 27
		Load 10.0
		Time 848.6174404594929
		Delay 0.0
			Membership 1
			Time Window [668, 1028]
			Load at node 10
			Service time at node 90
			Location (26, 32)
	Distance between 3.1622776601683795
			Node 28
		Load 20.0
		Time 941.7797181196612
		Delay 0.0
			Membership 1
			Time Window [761, 1121]
			Load at node 10
			Service time at node 90
			Location (25, 35)
	Distance between 3.0
			Node 81
		Load 10.0
		Time 1034.779718119661
		Delay 0.0
			Membership 1
			Time Window [766, 1126]
			Load at node -10
			Service time at node 90
			Location (28, 35)
	Distance between 2.0
			Node 80
		Load 0.0
		Time 1126.779718119661
		Delay 0.0
			Membership 1
			Time Window [767, 1127]
			Load at node -10
			Service time at node 90
			Location (30, 35)
	Distance between 18.027756377319946
			Node 107
		Load 0.0
		Time 1234.807474496981
		Delay 0.0
			Membership 1
			Time Window [0, 1236]
			Load at node 0
			Service time at node 0
			Location (40, 50)

Vehicle 4 with capacity 200
			Node 0
		Load 0.0
		Time 0.0
		Delay 0.0
			Membership 1
			Time Window [0, 1236]
			Load at node 0
			Service time at node 0
			Location (40, 50)
	Distance between 35.0
			Node 31
		Load 40.0
		Time 35.0
		Delay 0.0
			Membership 1
			Time Window [35, 395]
			Load at node 40
			Service time at node 90
			Location (40, 15)
	Distance between 2.0
			Node 84
		Load 0.0
		Time 127.0
		Delay 0.0
			Membership 1
			Time Window [35, 395]
			Load at node -40
			Service time at node 90
			Location (42, 15)
	Distance between 5.0
			Node 30
		Load 40.0
		Time 222.0
		Delay 0.0
			Membership 1
			Time Window [42, 402]
			Load at node 40
			Service time at node 90
			Location (42, 10)
	Distance between 5.385164807134504
			Node 29
		Load 60.0
		Time 317.3851648071345
		Delay 0.0
			Membership 1
			Time Window [137, 497]
			Load at node 20
			Service time at node 90
			Location (44, 5)
	Distance between 4.0
			Node 83
		Load 20.0
		Time 411.3851648071345
		Delay 0.0
			Membership 1
			Time Window [231, 591]
			Load at node -40
			Service time at node 90
			Location (40, 5)
	Distance between 2.0
			Node 82
		Load 0.0
		Time 503.3851648071345
		Delay 0.0
			Membership 1
			Time Window [323, 683]
			Load at node -20
			Service time at node 90
			Location (38, 5)
	Distance between 3.0
			Node 32
		Load 20.0
		Time 596.3851648071345
		Delay 0.0
			Membership 1
			Time Window [416, 776]
			Load at node 20
			Service time at node 90
			Location (35, 5)
	Distance between 10.44030650891055
			Node 85
		Load 0.0
		Time 696.8254713160451
		Delay 0.0
			Membership 1
			Time Window [516, 876]
			Load at node -20
			Service time at node 90
			Location (38, 15)
	Distance between 16.55294535724685
			Node 37
		Load 10.0
		Time 803.3784166732919
		Delay 0.0
			Membership 1
			Time Window [576, 936]
			Load at node 10
			Service time at node 90
			Location (45, 30)
	Distance between 5.385164807134504
			Node 90
		Load 0.0
		Time 898.7635814804264
		Delay 0.0
			Membership 1
			Time Window [671, 1031]
			Load at node -10
			Service time at node 90
			Location (47, 35)
	Distance between 16.55294535724685
			Node 107
		Load 0.0
		Time 1005.3165268376732
		Delay 0.0
			Membership 1
			Time Window [0, 1236]
			Load at node 0
			Service time at node 0
			Location (40, 50)

Vehicle 5 with capacity 200
			Node 0
		Load 0.0
		Time 0.0
		Delay 0.0
			Membership 1
			Time Window [0, 1236]
			Load at node 0
			Service time at node 0
			Location (40, 50)
	Distance between 20.615528128088304
			Node 48
		Load 10.0
		Time 20.615528128088304
		Delay 0.0
			Membership 1
			Time Window [20, 380]
			Load at node 10
			Service time at node 90
			Location (60, 55)
	Distance between 5.0
			Node 47
		Load 30.0
		Time 115.6155281280883
		Delay 0.0
			Membership 1
			Time Window [25, 385]
			Load at node 20
			Service time at node 90
			Location (65, 55)
	Distance between 1.0
			Node 46
		Load 40.0
		Time 206.6155281280883
		Delay 0.0
			Membership 1
			Time Window [26, 386]
			Load at node 10
			Service time at node 90
			Location (66, 55)
	Distance between 6.0
			Node 44
		Load 50.0
		Time 302.6155281280883
		Delay 0.0
			Membership 1
			Time Window [122, 482]
			Load at node 10
			Service time at node 90
			Location (72, 55)
	Distance between 3.0
			Node 97
		Load 40.0
		Time 395.6155281280883
		Delay 0.0
			Membership 1
			Time Window [215, 575]
			Load at node -10
			Service time at node 90
			Location (75, 55)
	Distance between 5.830951894845301
			Node 99
		Load 30.0
		Time 491.44648002293354
		Delay 0.0
			Membership 1
			Time Window [311, 671]
			Load at node -10
			Service time at node 90
			Location (70, 58)
	Distance between 2.8284271247461903
			Node 45
		Load 60.0
		Time 584.2749071476798
		Delay 0.0
			Membership 1
			Time Window [404, 764]
			Load at node 30
			Service time at node 90
			Location (68, 60)
	Distance between 3.0
			Node 101
		Load 50.0
		Time 677.2749071476798
		Delay 0.0
			Membership 1
			Time Window [497, 857]
			Load at node -10
			Service time at node 90
			Location (65, 60)
	Distance between 2.8284271247461903
			Node 100
		Load 30.0
		Time 770.103334272426
		Delay 0.0
			Membership 1
			Time Window [590, 950]
			Load at node -20
			Service time at node 90
			Location (63, 58)
	Distance between 3.605551275463989
			Node 98
		Load 0.0
		Time 863.70888554789
		Delay 0.0
			Membership 1
			Time Window [683, 1043]
			Load at node -30
			Service time at node 90
			Location (60, 60)
	Distance between 22.360679774997898
			Node 107
		Load 0.0
		Time 976.0695653228879
		Delay 0.0
			Membership 1
			Time Window [0, 1236]
			Load at node 0
			Service time at node 0
			Location (40, 50)

Vehicle 6 with capacity 200
			Node 0
		Load 0.0
		Time 0.0
		Delay 0.0
			Membership 1
			Time Window [0, 1236]
			Load at node 0
			Service time at node 0
			Location (40, 50)
	Distance between 31.622776601683793
			Node 17
		Load 30.0
		Time 31.622776601683793
		Delay 0.0
			Membership 1
			Time Window [31, 391]
			Load at node 30
			Service time at node 90
			Location (10, 40)
	Distance between 2.0
			Node 18
		Load 70.0
		Time 123.6227766016838
		Delay 0.0
			Membership 1
			Time Window [33, 393]
			Load at node 40
			Service time at node 90
			Location (8, 40)
	Distance between 5.385164807134504
			Node 71
		Load 30.0
		Time 219.00794140881828
		Delay 0.0
			Membership 1
			Time Window [39, 399]
			Load at node -40
			Service time at node 90
			Location (10, 35)
	Distance between 5.0
			Node 19
		Load 40.0
		Time 314.0079414088183
		Delay 0.0
			Membership 1
			Time Window [134, 494]
			Load at node 10
			Service time at node 90
			Location (5, 35)
	Distance between 5.830951894845301
			Node 70
		Load 10.0
		Time 409.83889330366355
		Delay 0.0
			Membership 1
			Time Window [229, 589]
			Load at node -30
			Service time at node 90
			Location (2, 40)
	Distance between 2.0
			Node 21
		Load 40.0
		Time 501.83889330366355
		Delay 0.0
			Membership 1
			Time Window [321, 681]
			Load at node 30
			Service time at node 90
			Location (0, 40)
	Distance between 5.0
			Node 72
		Load 30.0
		Time 596.8388933036636
		Delay 0.0
			Membership 1
			Time Window [416, 776]
			Load at node -10
			Service time at node 90
			Location (0, 45)
	Distance between 5.0
			Node 20
		Load 40.0
		Time 691.8388933036636
		Delay 0.0
			Membership 1
			Time Window [511, 871]
			Load at node 10
			Service time at node 0
			Location (5, 45)
	Distance between 0.0
			Node 73
		Load 30.0
		Time 691.8388933036636
		Delay 0.0
			Membership 1
			Time Window [511, 871]
			Load at node -10
			Service time at node 90
			Location (5, 45)
	Distance between 3.0
			Node 74
		Load 0.0
		Time 784.8388933036636
		Delay 0.0
			Membership 1
			Time Window [604, 964]
			Load at node -30
			Service time at node 90
			Location (8, 45)
	Distance between 32.38826948140329
			Node 107
		Load 0.0
		Time 907.2271627850669
		Delay 0.0
			Membership 1
			Time Window [0, 1236]
			Load at node 0
			Service time at node 0
			Location (40, 50)

Vehicle 7 with capacity 200
			Node 0
		Load 0.0
		Time 0.0
		Delay 0.0
			Membership 1
			Time Window [0, 1236]
			Load at node 0
			Service time at node 0
			Location (40, 50)
	Distance between 30.805843601498726
			Node 7
		Load 30.0
		Time 30.805843601498726
		Delay 0.0
			Membership 1
			Time Window [30, 390]
			Load at node 30
			Service time at node 90
			Location (22, 75)
	Distance between 4.0
			Node 8
		Load 50.0
		Time 124.80584360149872
		Delay 0.0
			Membership 1
			Time Window [33, 393]
			Load at node 20
			Service time at node 90
			Location (18, 75)
	Distance between 3.0
			Node 9
		Load 70.0
		Time 217.80584360149874
		Delay 0.0
			Membership 1
			Time Window [37, 397]
			Load at node 20
			Service time at node 90
			Location (15, 75)
	Distance between 5.0
			Node 10
		Load 80.0
		Time 312.80584360149874
		Delay 0.0
			Membership 1
			Time Window [132, 492]
			Load at node 10
			Service time at node 90
			Location (15, 80)
	Distance between 5.0
			Node 61
		Load 60.0
		Time 407.80584360149874
		Delay 0.0
			Membership 1
			Time Window [227, 587]
			Load at node -20
			Service time at node 90
			Location (20, 80)
	Distance between 5.0
			Node 62
		Load 40.0
		Time 502.80584360149874
		Delay 0.0
			Membership 1
			Time Window [322, 682]
			Load at node -20
			Service time at node 90
			Location (20, 85)
	Distance between 2.0
			Node 60
		Load 10.0
		Time 594.8058436014987
		Delay 0.0
			Membership 1
			Time Window [414, 774]
			Load at node -30
			Service time at node 90
			Location (22, 85)
	Distance between 3.0
			Node 63
		Load 0.0
		Time 687.8058436014987
		Delay 0.0
			Membership 1
			Time Window [507, 867]
			Load at node -10
			Service time at node 90
			Location (25, 85)
	Distance between 38.07886552931954
			Node 107
		Load 0.0
		Time 815.8847091308182
		Delay 0.0
			Membership 1
			Time Window [0, 1236]
			Load at node 0
			Service time at node 0
			Location (40, 50)

Vehicle 8 with capacity 200
			Node 0
		Load 0.0
		Time 0.0
		Delay 0.0
			Membership 1
			Time Window [0, 1236]
			Load at node 0
			Service time at node 0
			Location (40, 50)
	Distance between 30.805843601498726
			Node 53
		Load 20.0
		Time 30.805843601498726
		Delay 0.0
			Membership 1
			Time Window [30, 390]
			Load at node 20
			Service time at node 90
			Location (58, 75)
	Distance between 5.385164807134504
			Node 51
		Load 30.0
		Time 126.19100840863322
		Delay 0.0
			Membership 1
			Time Window [36, 396]
			Load at node 10
			Service time at node 0
			Location (60, 80)
	Distance between 0.0
			Node 104
		Load 20.0
		Time 126.19100840863322
		Delay 0.0
			Membership 1
			Time Window [36, 396]
			Load at node -10
			Service time at node 90
			Location (60, 80)
	Distance between 2.0
			Node 50
		Load 50.0
		Time 218.19100840863322
		Delay 0.0
			Membership 1
			Time Window [38, 398]
			Load at node 30
			Service time at node 90
			Location (62, 80)
	Distance between 3.605551275463989
			Node 103
		Load 20.0
		Time 311.79655968409725
		Delay 0.0
			Membership 1
			Time Window [131, 491]
			Load at node -30
			Service time at node 90
			Location (65, 82)
	Distance between 3.605551275463989
			Node 49
		Load 40.0
		Time 405.40211095956124
		Delay 0.0
			Membership 1
			Time Window [225, 585]
			Load at node 20
			Service time at node 90
			Location (67, 85)
	Distance between 2.0
			Node 106
		Load 20.0
		Time 497.40211095956124
		Delay 0.0
			Membership 1
			Time Window [317, 677]
			Load at node -20
			Service time at node 90
			Location (65, 85)
	Distance between 5.0
			Node 52
		Load 50.0
		Time 592.4021109595612
		Delay 0.0
			Membership 1
			Time Window [412, 772]
			Load at node 30
			Service time at node 90
			Location (60, 85)
	Distance between 5.0
			Node 102
		Load 30.0
		Time 687.4021109595612
		Delay 0.0
			Membership 1
			Time Window [507, 867]
			Load at node -20
			Service time at node 90
			Location (55, 85)
	Distance between 5.0
			Node 105
		Load 0.0
		Time 782.4021109595612
		Delay 0.0
			Membership 1
			Time Window [602, 962]
			Load at node -30
			Service time at node 90
			Location (55, 80)
	Distance between 33.54101966249684
			Node 107
		Load 0.0
		Time 905.9431306220581
		Delay 0.0
			Membership 1
			Time Window [0, 1236]
			Load at node 0
			Service time at node 0
			Location (40, 50)

Vehicle 9 with capacity 200
			Node 0
		Load 0.0
		Time 0.0
		Delay 0.0
			Membership 1
			Time Window [0, 1236]
			Load at node 0
			Service time at node 0
			Location (40, 50)
	Distance between 47.43416490252569
			Node 43
		Load 30.0
		Time 47.43416490252569
		Delay 0.0
			Membership 1
			Time Window [47, 407]
			Load at node 30
			Service time at node 90
			Location (85, 35)
	Distance between 3.0
			Node 96
		Load 0.0
		Time 140.43416490252568
		Delay 0.0
			Membership 1
			Time Window [50, 410]
			Load at node -30
			Service time at node 90
			Location (88, 35)
	Distance between 2.0
			Node 40
		Load 10.0
		Time 232.43416490252568
		Delay 0.0
			Membership 1
			Time Window [52, 412]
			Load at node 10
			Service time at node 90
			Location (90, 35)
	Distance between 5.0
			Node 93
		Load 0.0
		Time 327.4341649025257
		Delay 0.0
			Membership 1
			Time Window [147, 507]
			Load at node -10
			Service time at node 90
			Location (95, 35)
	Distance between 5.0
			Node 38
		Load 30.0
		Time 422.4341649025257
		Delay 0.0
			Membership 1
			Time Window [242, 602]
			Load at node 30
			Service time at node 90
			Location (95, 30)
	Distance between 3.0
			Node 91
		Load 0.0
		Time 515.4341649025257
		Delay 0.0
			Membership 1
			Time Window [335, 695]
			Load at node -30
			Service time at node 90
			Location (92, 30)
	Distance between 4.0
			Node 41
		Load 10.0
		Time 609.4341649025257
		Delay 0.0
			Membership 1
			Time Window [429, 789]
			Load at node 10
			Service time at node 0
			Location (88, 30)
	Distance between 0.0
			Node 94
		Load 0.0
		Time 609.4341649025257
		Delay 0.0
			Membership 1
			Time Window [429, 789]
			Load at node -10
			Service time at node 90
			Location (88, 30)
	Distance between 1.0
			Node 42
		Load 10.0
		Time 700.4341649025257
		Delay 0.0
			Membership 1
			Time Window [520, 880]
			Load at node 10
			Service time at node 90
			Location (87, 30)
	Distance between 5.385164807134504
			Node 95
		Load 0.0
		Time 795.8193297096602
		Delay 0.0
			Membership 1
			Time Window [615, 975]
			Load at node -10
			Service time at node 90
			Location (85, 25)
	Distance between 51.478150704935004
			Node 107
		Load 0.0
		Time 937.2974804145952
		Delay 0.0
			Membership 1
			Time Window [0, 1236]
			Load at node 0
			Service time at node 0
			Location (40, 50)

